NAME : ch130
COMMENT : 130
TYPE : TOUR
DIMENSION : 130
TOUR_LENGTH : 6330
ERROR : 0.0360065
TOUR_SECTION
74
73
98
72
91
71
90
5
101
9
13
66
95
12
121
54
22
46
39
36
21
92
43
41
59
50
119
52
48
57
105
37
11
86
80
102
76
28
14
23
115
94
78
99
18
26
33
16
30
53
34
3
19
45
79
117
1
49
129
0
40
70
38
116
114
27
65
84
124
89
77
120
58
29
125
32
20
17
7
107
113
2
82
111
61
104
127
15
44
4
10
75
108
60
128
123
63
68
85
87
25
6
96
69
126
106
103
42
62
67
47
24
97
109
88
93
112
31
83
35
118
110
122
100
81
56
8
55
64
51
-1
EOF
